SDVRP instances/custom_instances/p01_3_splitx10_0.vrp
NAME:p01_3_splitx10_
BEST_KNOWN: 0
COMMENT: 0
DIMENSION: 246
CAPACITY: 1600
EDGE_WEIGHT_FORMAT: FUNCTION
EDGE_WEIGHT_TYPE: EXACT_2D
NODE_COORD_SECTION
1 0.00000 0.00000
2 -48 23
3 -48 23
4 18 29
5 18 29
6 18 29
7 48 -6
8 48 -6
9 48 -6
10 48 -6
11 48 -6
12 48 -6
13 29 -34
14 29 -34
15 29 -34
16 29 -34
17 29 -34
18 29 -34
19 -45 28
20 -45 28
21 -45 28
22 -45 28
23 -45 28
24 -45 28
25 -45 28
26 43 -5
27 43 -5
28 -10 5
29 -10 5
30 -10 5
31 -10 5
32 -10 5
33 -10 5
34 1 28
35 1 28
36 1 28
37 1 28
38 1 28
39 24 3
40 24 3
41 24 3
42 5 1
43 5 1
44 5 1
45 5 1
46 5 1
47 5 1
48 -15 -12
49 -15 -12
50 -15 -12
51 -15 -12
52 5 -13
53 5 -13
54 5 -13
55 5 -13
56 5 -13
57 5 -13
58 -12 -9
59 -12 -9
60 -12 -9
61 -12 -9
62 7 8
63 7 8
64 7 8
65 7 8
66 7 8
67 -15 23
68 -15 23
69 -15 23
70 -15 23
71 13 -8
72 13 -8
73 13 -8
74 13 -8
75 13 -8
76 13 -8
77 -7 -39
78 -7 -39
79 -7 -39
80 -7 -39
81 -7 -39
82 -7 -39
83 10 -28
84 10 -28
85 10 -28
86 10 -28
87 10 -28
88 10 -28
89 -40 1
90 -40 1
91 -40 1
92 -40 1
93 -40 1
94 -40 1
95 -40 1
96 -13 1
97 -13 1
98 -13 1
99 -13 1
100 -13 1
101 3 -40
102 3 -40
103 3 -40
104 3 -40
105 3 -40
106 13 -19
107 13 -19
108 13 -19
109 13 -19
110 13 -19
111 13 -19
112 13 -19
113 -43 -30
114 -43 -30
115 -43 -30
116 -43 -30
117 27 25
118 27 25
119 27 25
120 27 25
121 14 23
122 14 23
123 14 23
124 -21 -2
125 -21 -2
126 -21 -2
127 -21 -2
128 15 -4
129 15 -4
130 15 -4
131 15 -4
132 15 -4
133 15 -4
134 -8 -41
135 -8 -41
136 -8 -41
137 -8 -41
138 -8 -41
139 -28 8
140 -28 8
141 -28 8
142 -28 8
143 -28 8
144 -28 8
145 -28 8
146 -28 8
147 -5 -8
148 -5 -8
149 -5 -8
150 -50 -10
151 -50 -10
152 -50 -10
153 -50 -10
154 44 46
155 44 46
156 44 46
157 44 46
158 44 46
159 -41 21
160 -41 21
161 -41 21
162 -41 21
163 -26 -26
164 -26 -26
165 -26 -26
166 -26 -26
167 -26 -26
168 -26 -26
169 -26 -26
170 -43 32
171 -43 32
172 32 -40
173 32 -40
174 32 -40
175 32 -40
176 32 -40
177 -33 25
178 -33 25
179 -33 25
180 -33 25
181 -33 25
182 -33 25
183 -33 25
184 39 -28
185 39 -28
186 39 -28
187 39 -28
188 39 -28
189 39 -28
190 35 -32
191 35 -32
192 35 -32
193 35 -32
194 35 -32
195 35 -32
196 35 -32
197 35 -32
198 40 49
199 40 49
200 40 49
201 40 49
202 -42 2
203 -42 2
204 -42 2
205 16 -3
206 16 -3
207 16 -3
208 -20 33
209 -20 33
210 -20 33
211 -20 33
212 27 -34
213 27 -34
214 27 -34
215 27 -34
216 27 -34
217 27 -34
218 27 -34
219 21 16
220 21 16
221 21 16
222 21 16
223 21 16
224 38 -45
225 38 -45
226 38 -45
227 38 -45
228 38 -45
229 38 -45
230 38 -45
231 12 31
232 12 31
233 12 31
234 12 31
235 12 31
236 12 31
237 12 31
238 45 22
239 45 22
240 45 22
241 9 -39
242 9 -39
243 -10 28
244 -10 28
245 -10 28
246 -10 28
DEMAND_SECTION
1 0
2 320
3 10
4 320
5 160
6 80
7 320
8 80
9 16
10 16
11 16
12 12
13 320
14 160
15 16
16 16
17 16
18 2
19 320
20 80
21 16
22 16
23 16
24 16
25 6
26 320
27 320
28 320
29 320
30 16
31 16
32 16
33 12
34 320
35 160
36 80
37 16
38 14
39 320
40 16
41 4
42 320
43 80
44 16
45 16
46 16
47 12
48 320
49 80
50 16
51 14
52 320
53 80
54 16
55 16
56 16
57 12
58 320
59 320
60 16
61 14
62 320
63 320
64 80
65 16
66 4
67 160
68 80
69 16
70 4
71 160
72 16
73 16
74 16
75 16
76 6
77 320
78 160
79 80
80 16
81 16
82 8
83 320
84 320
85 16
86 16
87 16
88 12
89 160
90 80
91 16
92 16
93 16
94 16
95 6
96 320
97 160
98 16
99 16
100 8
101 320
102 160
103 16
104 16
105 8
106 320
107 320
108 80
109 16
110 16
111 16
112 2
113 320
114 320
115 16
116 4
117 320
118 320
119 16
120 4
121 320
122 320
123 80
124 320
125 16
126 16
127 8
128 320
129 160
130 80
131 16
132 16
133 8
134 320
135 16
136 16
137 16
138 12
139 320
140 160
141 80
142 16
143 16
144 16
145 16
146 6
147 320
148 16
149 4
150 320
151 320
152 16
153 4
154 320
155 160
156 80
157 16
158 14
159 320
160 320
161 16
162 14
163 320
164 320
165 80
166 16
167 16
168 16
169 12
170 160
171 80
172 160
173 80
174 16
175 16
176 8
177 160
178 80
179 16
180 16
181 16
182 16
183 6
184 320
185 80
186 16
187 16
188 16
189 12
190 320
191 160
192 80
193 16
194 16
195 16
196 16
197 6
198 320
199 80
200 16
201 14
202 160
203 80
204 10
205 320
206 320
207 160
208 320
209 16
210 16
211 8
212 320
213 80
214 16
215 16
216 16
217 16
218 6
219 320
220 320
221 16
222 16
223 8
224 320
225 320
226 80
227 16
228 16
229 16
230 2
231 320
232 320
233 80
234 16
235 16
236 16
237 12
238 320
239 320
240 160
241 320
242 320
243 320
244 16
245 16
246 8
DEPOT_SECTION
1
-1
EOF