SDVRP instances/custom_instances/p01_3_splitx10_0.sol
245 -5 4 3 199 198 197 200 156 155 154 153 157 -14 15 16 12 228 227 226 229 223 225 224 173 174 172 175 171 214 213 215 212 110 111 108 109 -30 32 31 28 29 27 96 99 97 95 98 -33 37 35 36 34 245 243 244 242 67 69 66 68 -39 40 38 7 10 6 9 11 8 26 25 206 -43 42 45 46 221 222 219 218 220 62 64 63 61 65 -44 41 204 205 132 128 130 129 127 131 -50 49 115 114 112 113 168 165 166 167 162 163 164 -52 55 54 53 56 51 105 107 106 74 72 71 75 70 73 -58 57 60 59 48 47 147 146 148 -81 78 77 80 79 76 134 137 136 135 133 103 104 100 101 102 -87 83 86 85 84 82 240 241 -92 93 89 94 91 90 88 203 202 201 152 151 149 150 125 123 124 126 -116 118 117 119 238 239 237 -120 121 122 235 233 231 230 236 234 232 -140 144 2 1 22 20 19 21 24 23 18 169 170 209 210 208 207 -142 145 141 138 143 139 158 159 160 161 180 176 182 178 177 179 181 -186 188 185 187 183 184 190 191 194 196 189 195 192 193 13 17 216 217 211 0 





OBJ=
1520.023
BEST_KNOWN=
0.000